NAME : pairopt.-195535.tour
COMMENT : Length = -195535
COMMENT : Found by LKH-3 [Keld Helsgaun] Wed May 14 16:48:36 2025
TYPE : TOUR
DIMENSION : 28
TOUR_SECTION
1
2
17
13
18
15
24
19
20
21
14
25
16
26
23
12
28
3
11
22
10
8
6
7
5
4
9
27
-1
EOF
